Route 1: 0 40 75 32 62 48 13 74 54 77 63 28 0
Route 2: 0 17 96 39 55 70 86 53 51 68 21 0
Route 3: 0 88 78 42 52 71 92 20 6 67 100 76 25 0
Route 4: 0 65 10 95 64 36 9 0
Route 5: 0 72 27 30 33 4 49 83 58 0
Route 6: 0 82 34 66 93 45 85 69 18 16 26 11 0
Route 7: 0 29 15 90 81 43 61 8 22 12 57 38 60 0
Route 8: 0 79 1 91 24 7 73 89 19 3 5 94 0
Route 9: 0 50 97 87 2 47 99 0
Route 10: 0 80 59 84 35 23 41 31 0
Route 11: 0 44 98 37 46 14 56 0
